40
0 1 0.35 0.15
0 2 0.42 0.12
0 3 0.78 0.06
0 4 0.24 0.12
0 5 0.74 0.2
0 6 0.7 0.21
0 7 0.54 0.24
0 8 0.7 0.15
0 9 0.66 0.27
0 10 0.49 0.14
0 11 0.54 0.33
0 12 0.21 0.16
0 13 0.75 0.03
0 14 0.48 0.29
0 15 0.3 0.22
0 16 0.44 0.18
0 17 0.51 0.18
0 18 0.5 0.2
0 19 0.62 0.2
0 20 0.62 0.12
0 21 0.52 0.16
0 22 0.44 0.25
0 23 0.59 0.18
0 24 0.51 0.24
0 25 0.7 0.19
0 26 0.41 0.06
0 27 0.58 0.12
0 28 0.56 0.29
0 29 0.71 0.14
0 30 0.56 0.24
0 31 0.51 0.11
0 32 0.53 0.14
0 33 0.5 0.14
0 34 0.7 0.12
0 35 0.37 0.17
0 36 0.67 0.16
0 37 0.7 0.18
0 38 0.51 0.13
0 39 0.7 0.21
1 2 0.53 0.27
1 3 0.48 0.21
1 4 0.54 0.13
1 5 0.84 0.16
1 6 0.68 0.14
1 7 0.46 0.17
1 8 0.64 0.08
1 9 0.52 0.22
1 10 0.48 0.17
1 11 0.59 0.32
1 12 0.56 0.09
1 13 0.5 0.12
1 14 0.69 0.22
1 15 0.5 0.19
1 16 0.72 0.12
1 17 0.54 0.14
1 18 0.71 0.17
1 19 0.76 0.21
1 20 0.77 0.19
1 21 0.62 0.17
1 22 0.79 0.18
1 23 0.63 0.22
1 24 0.74 0.22
1 25 0.8 0.27
1 26 0.64 0.21
1 27 0.65 0.22
1 28 0.38 0.29
1 29 0.62 0.18
1 30 0.58 0.25
1 31 0.7 0.04
1 32 0.47 0.17
1 33 0.64 0.07
1 34 0.44 0.16
1 35 0.53 0.1
1 36 0.66 0.21
1 37 0.54 0.22
1 38 0.8 0.17
1 39 0.58 0.21
2 3 0.46 0.18
2 4 0.66 0.24
2 5 0.62 0.32
2 6 0.58 0.32
2 7 0.52 0.29
2 8 0.54 0.26
2 9 0.52 0.35
2 10 0.6 0.23
2 11 0.55 0.34
2 12 0.6 0.28
2 13 0.52 0.15
2 14 0.57 0.36
2 15 0.35 0.31
2 16 0.44 0.3
2 17 0.52 0.3
2 18 0.18 0.17
2 19 0.4 0.32
2 20 0.64 0.24
2 21 0.67 0.28
2 22 0.72 0.31
2 23 0.56 0.3
2 24 0.5 0.36
2 25 0.62 0.29
2 26 0.66 0.18
2 27 0.42 0.24
2 28 0.72 0.28
2 29 0.58 0.26
2 30 0.62 0.36
2 31 0.72 0.23
2 32 0.64 0.23
2 33 0.46 0.26
2 34 0.46 0.24
2 35 0.54 0.28
2 36 0.58 0.28
2 37 0.58 0.23
2 38 0.66 0.19
2 39 0.65 0.2
3 4 0.6 0.18
3 5 0.5 0.24
3 6 0.68 0.21
3 7 0.5 0.3
3 8 0.53 0.21
3 9 0.62 0.24
3 10 0.68 0.2
3 11 0.68 0.28
3 12 0.64 0.22
3 13 0.52 0.09
3 14 0.63 0.35
3 15 0.76 0.28
3 16 0.54 0.24
3 17 0.52 0.22
3 18 0.28 0.16
3 19 0.79 0.14
3 20 0.7 0.18
3 21 0.55 0.22
3 22 0.44 0.2
3 23 0.58 0.24
3 24 0.66 0.18
3 25 0.39 0.18
3 26 0.54 0.12
3 27 0.26 0.18
3 28 0.5 0.23
3 29 0.68 0.2
3 30 0.45 0.21
3 31 0.62 0.17
3 32 0.68 0.2
3 33 0.63 0.2
3 34 0.56 0.18
3 35 0.53 0.22
3 36 0.54 0.1
3 37 0.37 0.12
3 38 0.6 0.19
3 39 0.68 0.15
4 5 0.84 0.15
4 6 0.55 0.13
4 7 0.49 0.2
4 8 0.52 0.07
4 9 0.62 0.15
4 10 0.56 0.16
4 11 0.61 0.25
4 12 0.45 0.08
4 13 0.74 0.15
4 14 0.39 0.27
4 15 0.54 0.18
4 16 0.36 0.11
4 17 0.63 0.13
4 18 0.62 0.16
4 19 0.66 0.2
4 20 0.43 0.18
4 21 0.73 0.04
4 22 0.54 0.17
4 23 0.78 0.21
4 24 0.48 0.21
4 25 0.6 0.27
4 26 0.4 0.18
4 27 0.68 0.21
4 28 0.42 0.28
4 29 0.8 0.17
4 30 0.59 0.12
4 31 0.75 0.09
4 32 0.68 0.16
4 33 0.26 0.06
4 34 0.67 0.15
4 35 0.22 0.09
4 36 0.62 0.24
4 37 0.46 0.21
4 38 0.44 0.25
4 39 0.46 0.2
5 6 0.66 0.22
5 7 0.64 0.21
5 8 0.76 0.16
5 9 0.54 0.14
5 10 0.7 0.09
5 11 0.28 0.2
5 12 0.6 0.07
5 13 0.62 0.2
5 14 0.78 0.13
5 15 0.46 0.17
5 16 0.53 0.2
5 17 0.3 0.02
5 18 0.78 0.15
5 19 0.62 0.18
5 20 0.72 0.11
5 21 0.4 0.19
5 22 0.68 0.18
5 23 0.44 0.23
5 24 0.41 0.23
5 25 0.78 0.26
5 26 0.58 0.2
5 27 0.42 0.21
5 28 0.84 0.25
5 29 0.84 0.15
5 30 0.56 0.23
5 31 0.67 0.12
5 32 0.74 0.09
5 33 0.63 0.15
5 34 0.54 0.17
5 35 0.67 0.18
5 36 0.76 0.14
5 37 0.62 0.2
5 38 0.58 0.27
5 39 0.61 0.17
6 7 0.78 0.21
6 8 0.44 0.06
6 9 0.79 0.22
6 10 0.54 0.17
6 11 0.83 0.28
6 12 0.77 0.15
6 13 0.68 0.18
6 14 0.64 0.28
6 15 0.4 0.25
6 16 0.56 0.12
6 17 0.47 0.2
6 18 0.68 0.15
6 19 0.49 0.07
6 20 0.43 0.18
6 21 0.39 0.17
6 22 0.58 0.18
6 23 0.8 0.16
6 24 0.5 0.15
6 25 0.49 0.22
6 26 0.62 0.25
6 27 0.53 0.22
6 28 0.56 0.22
6 29 0.64 0.12
6 30 0.7 0.23
6 31 0.54 0.1
6 32 0.72 0.17
6 33 0.66 0.07
6 34 0.76 0.1
6 35 0.77 0.04
6 36 0.66 0.11
6 37 0.58 0.17
6 38 0.48 0.29
6 39 0.68 0.2
7 8 0.66 0.15
7 9 0.7 0.27
7 10 0.54 0.12
7 11 0.64 0.28
7 12 0.71 0.22
7 13 0.44 0.23
7 14 0.63 0.24
7 15 0.51 0.2
7 16 0.5 0.19
7 17 0.64 0.19
7 18 0.7 0.18
7 19 0.3 0.24
7 20 0.56 0.14
7 21 0.91 0.24
7 22 0.68 0.25
7 23 0.6 0.26
7 24 0.45 0.18
7 25 0.74 0.29
7 26 0.84 0.18
7 27 0.66 0.12
7 28 0.49 0.34
7 29 0.56 0.18
7 30 0.52 0.14
7 31 0.7 0.17
7 32 0.62 0.12
7 33 0.4 0.14
7 34 0.81 0.2
7 35 0.66 0.17
7 36 0.55 0.28
7 37 0.72 0.23
7 38 0.67 0.25
7 39 0.72 0.26
8 9 0.35 0.16
8 10 0.43 0.11
8 11 0.48 0.26
8 12 0.7 0.09
8 13 0.24 0.12
8 14 0.78 0.22
8 15 0.67 0.19
8 16 0.36 0.06
8 17 0.46 0.14
8 18 0.36 0.09
8 19 0.5 0.13
8 20 0.38 0.13
8 21 0.78 0.11
8 22 0.48 0.12
8 23 0.61 0.14
8 24 0.48 0.16
8 25 0.53 0.2
8 26 0.54 0.21
8 27 0.53 0.16
8 28 0.62 0.23
8 29 0.48 0.1
8 30 0.59 0.19
8 31 0.44 0.04
8 32 0.38 0.11
8 33 0.26 0.01
8 34 0.36 0.08
8 35 0.4 0.02
8 36 0.61 0.17
8 37 0.22 0.14
8 38 0.67 0.25
8 39 0.52 0.15
9 10 0.64 0.15
9 11 0.26 0.1
9 12 0.45 0.17
9 13 0.32 0.25
9 14 0.6 0.26
9 15 0.8 0.23
9 16 0.67 0.2
9 17 0.63 0.12
9 18 0.59 0.21
9 19 0.4 0.22
9 20 0.64 0.17
9 21 0.52 0.11
9 22 0.48 0.04
9 23 0.52 0.29
9 24 0.67 0.3
9 25 0.64 0.18
9 26 0.46 0.29
9 27 0.46 0.27
9 28 0.36 0.16
9 29 0.83 0.21
9 30 0.66 0.27
9 31 0.78 0.18
9 32 0.36 0.15
9 33 0.57 0.15
9 34 0.52 0.23
9 35 0.6 0.18
9 36 0.54 0.18
9 37 0.57 0.12
9 38 0.44 0.32
9 39 0.58 0.15
10 11 0.58 0.25
10 12 0.28 0.12
10 13 0.66 0.11
10 14 0.69 0.22
10 15 0.66 0.08
10 16 0.74 0.15
10 17 0.58 0.07
10 18 0.58 0.06
10 19 0.39 0.12
10 20 0.6 0.02
10 21 0.56 0.2
10 22 0.6 0.18
10 23 0.64 0.14
10 24 0.64 0.19
10 25 0.59 0.17
10 26 0.48 0.14
10 27 0.8 0.12
10 28 0.52 0.22
10 29 0.55 0.06
10 30 0.66 0.14
10 31 0.69 0.13
10 32 0.57 0.0
10 33 0.64 0.1
10 34 0.63 0.08
10 35 0.34 0.13
10 36 0.45 0.16
10 37 0.53 0.11
10 38 0.5 0.21
10 39 0.69 0.14
11 12 0.54 0.27
11 13 0.57 0.33
11 14 0.5 0.23
11 15 0.58 0.26
11 16 0.6 0.3
11 17 0.58 0.22
11 18 0.54 0.31
11 19 0.34 0.22
11 20 0.54 0.24
11 21 0.68 0.21
11 22 0.63 0.14
11 23 0.69 0.3
11 24 0.64 0.3
11 25 0.68 0.23
11 26 0.49 0.27
11 27 0.5 0.21
11 28 0.62 0.06
11 29 0.58 0.26
11 30 0.4 0.24
11 31 0.52 0.28
11 32 0.62 0.25
11 33 0.5 0.25
11 34 0.26 0.24
11 35 0.39 0.28
11 36 0.59 0.18
11 37 0.64 0.17
11 38 0.38 0.26
11 39 0.48 0.14
12 13 0.54 0.13
12 14 0.69 0.2
12 15 0.51 0.1
12 16 0.65 0.13
12 17 0.3 0.05
12 18 0.71 0.18
12 19 0.67 0.21
12 20 0.67 0.14
12 21 0.64 0.12
12 22 0.32 0.19
12 23 0.68 0.19
12 24 0.6 0.23
12 25 0.7 0.28
12 26 0.2 0.14
12 27 0.78 0.2
12 28 0.68 0.3
12 29 0.52 0.18
12 30 0.69 0.2
12 31 0.55 0.05
12 32 0.66 0.12
12 33 0.6 0.08
12 34 0.64 0.17
12 35 0.58 0.11
12 36 0.73 0.17
12 37 0.58 0.23
12 38 0.43 0.21
12 39 0.61 0.22
13 14 0.74 0.26
13 15 0.75 0.19
13 16 0.58 0.15
13 17 0.32 0.18
13 18 0.59 0.17
13 19 0.63 0.23
13 20 0.61 0.09
13 21 0.68 0.19
13 22 0.7 0.22
13 23 0.76 0.15
13 24 0.54 0.25
13 25 0.48 0.16
13 26 0.51 0.09
13 27 0.73 0.15
13 28 0.4 0.27
13 29 0.66 0.11
13 30 0.52 0.21
13 31 0.48 0.08
13 32 0.31 0.11
13 33 0.48 0.11
13 34 0.6 0.09
13 35 0.54 0.14
13 36 0.38 0.19
13 37 0.46 0.21
13 38 0.54 0.16
13 39 0.5 0.24
14 15 0.67 0.14
14 16 0.42 0.26
14 17 0.58 0.15
14 18 0.68 0.28
14 19 0.6 0.26
14 20 0.44 0.22
14 21 0.74 0.31
14 22 0.46 0.22
14 23 0.56 0.23
14 24 0.49 0.3
14 25 0.44 0.31
14 26 0.79 0.24
14 27 0.64 0.3
14 28 0.81 0.29
14 29 0.66 0.28
14 30 0.64 0.34
14 31 0.67 0.18
14 32 0.86 0.22
14 33 0.52 0.21
14 34 0.59 0.29
14 35 0.61 0.24
14 36 0.36 0.27
14 37 0.72 0.25
14 38 0.29 0.17
14 39 0.6 0.28
15 16 0.67 0.23
15 17 0.74 0.15
15 18 0.51 0.14
15 19 0.45 0.2
15 20 0.6 0.1
15 21 0.55 0.22
15 22 0.46 0.26
15 23 0.84 0.09
15 24 0.68 0.16
15 25 0.8 0.25
15 26 0.47 0.22
15 27 0.62 0.2
15 28 0.52 0.3
15 29 0.56 0.14
15 30 0.69 0.22
15 31 0.76 0.15
15 32 0.5 0.08
15 33 0.57 0.18
15 34 0.62 0.15
15 35 0.67 0.21
15 36 0.37 0.24
15 37 0.45 0.19
15 38 0.68 0.29
15 39 0.61 0.22
16 17 0.65 0.18
16 18 0.26 0.15
16 19 0.79 0.19
16 20 0.5 0.17
16 21 0.67 0.15
16 22 0.38 0.16
16 23 0.68 0.2
16 24 0.12 0.1
16 25 0.44 0.2
16 26 0.71 0.16
16 27 0.8 0.1
16 28 0.6 0.25
16 29 0.44 0.16
16 30 0.42 0.22
16 31 0.59 0.08
16 32 0.52 0.15
16 33 0.1 0.05
16 34 0.54 0.14
16 35 0.58 0.08
16 36 0.6 0.2
16 37 0.44 0.14
16 38 0.56 0.23
16 39 0.62 0.17
17 18 0.7 0.13
17 19 0.72 0.16
17 20 0.55 0.09
17 21 0.7 0.17
17 22 0.38 0.16
17 23 0.63 0.21
17 24 0.66 0.25
17 25 0.58 0.24
17 26 0.34 0.19
17 27 0.58 0.19
17 28 0.7 0.27
17 29 0.54 0.13
17 30 0.39 0.21
17 31 0.64 0.1
17 32 0.63 0.07
17 33 0.56 0.13
17 34 0.55 0.15
17 35 0.71 0.16
17 36 0.55 0.12
17 37 0.64 0.18
17 38 0.69 0.26
17 39 0.31 0.19
18 19 0.58 0.18
18 20 0.46 0.08
18 21 0.5 0.2
18 22 0.54 0.21
18 23 0.66 0.18
18 24 0.38 0.25
18 25 0.44 0.23
18 26 0.7 0.2
18 27 0.54 0.18
18 28 0.54 0.28
18 29 0.4 0.12
18 30 0.68 0.2
18 31 0.54 0.13
18 32 0.46 0.06
18 33 0.36 0.1
18 34 0.28 0.12
18 35 0.5 0.11
18 36 0.68 0.22
18 37 0.58 0.17
18 38 0.67 0.27
18 39 0.47 0.2
19 20 0.48 0.14
19 21 0.8 0.24
19 22 0.6 0.18
19 23 0.81 0.23
19 24 0.75 0.22
19 25 0.76 0.16
19 26 0.54 0.26
19 27 0.76 0.24
19 28 0.7 0.21
19 29 0.48 0.18
19 30 0.74 0.26
19 31 0.58 0.17
19 32 0.69 0.12
19 33 0.7 0.14
19 34 0.51 0.17
19 35 0.5 0.11
19 36 0.25 0.04
19 37 0.6 0.1
19 38 0.56 0.3
19 39 0.49 0.13
20 21 0.72 0.22
20 22 0.43 0.16
20 23 0.65 0.16
20 24 0.62 0.17
20 25 0.88 0.19
20 26 0.48 0.12
20 27 0.91 0.14
20 28 0.63 0.24
20 29 0.42 0.08
20 30 0.5 0.12
20 31 0.58 0.15
20 32 0.58 0.02
20 33 0.6 0.12
20 34 0.56 0.1
20 35 0.54 0.14
20 36 0.23 0.18
20 37 0.6 0.13
20 38 0.73 0.19
20 39 0.47 0.16
21 22 0.73 0.15
21 23 0.42 0.25
21 24 0.62 0.25
21 25 0.72 0.24
21 26 0.84 0.22
21 27 0.57 0.25
21 28 0.53 0.24
21 29 0.66 0.21
21 30 0.7 0.16
21 31 0.54 0.13
21 32 0.68 0.2
21 33 0.67 0.1
21 34 0.63 0.19
21 35 0.58 0.13
21 36 0.55 0.24
21 37 0.64 0.18
21 38 0.86 0.29
21 39 0.48 0.21
22 23 0.65 0.26
22 24 0.28 0.26
22 25 0.61 0.14
22 26 0.52 0.28
22 27 0.63 0.26
22 28 0.74 0.19
22 29 0.69 0.22
22 30 0.43 0.25
22 31 0.48 0.14
22 32 0.58 0.18
22 33 0.28 0.11
22 34 0.44 0.2
22 35 0.56 0.14
22 36 0.66 0.14
22 37 0.26 0.08
22 38 0.71 0.28
22 39 0.58 0.11
23 24 0.56 0.25
23 25 0.58 0.22
23 26 0.48 0.21
23 27 0.82 0.24
23 28 0.47 0.32
23 29 0.52 0.08
23 30 0.65 0.19
23 31 0.62 0.18
23 32 0.76 0.14
23 33 0.68 0.15
23 34 0.6 0.06
23 35 0.62 0.12
23 36 0.56 0.27
23 37 0.39 0.22
23 38 0.62 0.26
23 39 0.32 0.25
24 25 0.56 0.25
24 26 0.78 0.26
24 27 0.68 0.2
24 28 0.48 0.24
24 29 0.48 0.25
24 30 0.54 0.29
24 31 0.52 0.18
24 32 0.64 0.19
24 33 0.22 0.15
24 34 0.66 0.24
24 35 0.7 0.18
24 36 0.52 0.25
24 37 0.54 0.19
24 38 0.44 0.33
24 39 0.5 0.16
25 26 0.78 0.23
25 27 0.65 0.18
25 28 0.76 0.17
25 29 0.62 0.18
25 30 0.48 0.29
25 31 0.36 0.23
25 32 0.42 0.17
25 33 0.34 0.21
25 34 0.42 0.16
25 35 0.7 0.22
25 36 0.66 0.12
25 37 0.35 0.06
25 38 0.4 0.16
25 39 0.78 0.09
26 27 0.74 0.06
26 28 0.48 0.32
26 29 0.72 0.13
26 30 0.66 0.24
26 31 0.7 0.17
26 32 0.49 0.14
26 33 0.66 0.2
26 34 0.44 0.15
26 35 0.62 0.21
26 36 0.71 0.22
26 37 0.6 0.24
26 38 0.5 0.07
26 39 0.65 0.24
27 28 0.71 0.27
27 29 0.86 0.18
27 30 0.54 0.26
27 31 0.36 0.18
27 32 0.42 0.12
27 33 0.7 0.15
27 34 0.44 0.18
27 35 0.46 0.18
27 36 0.74 0.28
27 37 0.63 0.23
27 38 0.65 0.13
27 39 0.5 0.26
28 29 0.8 0.28
28 30 0.61 0.3
28 31 0.72 0.25
28 32 0.5 0.22
28 33 0.68 0.22
28 34 0.6 0.3
28 35 0.52 0.25
28 36 0.68 0.17
28 37 0.48 0.11
28 38 0.68 0.25
28 39 0.62 0.08
29 30 0.41 0.15
29 31 0.68 0.14
29 32 0.74 0.06
29 33 0.54 0.11
29 34 0.42 0.02
29 35 0.82 0.08
29 36 0.57 0.22
29 37 0.7 0.17
29 38 0.84 0.2
29 39 0.79 0.2
30 31 0.7 0.21
30 32 0.42 0.14
30 33 0.33 0.18
30 34 0.44 0.13
30 35 0.48 0.19
30 36 0.5 0.3
30 37 0.69 0.25
30 38 0.78 0.25
30 39 0.52 0.28
31 32 0.5 0.13
31 33 0.64 0.03
31 34 0.26 0.12
31 35 0.68 0.06
31 36 0.71 0.21
31 37 0.66 0.18
31 38 0.68 0.21
31 39 0.47 0.17
32 33 0.42 0.1
32 34 0.69 0.08
32 35 0.78 0.13
32 36 0.69 0.16
32 37 0.6 0.11
32 38 0.8 0.21
32 39 0.78 0.14
33 34 0.52 0.09
33 35 0.48 0.03
33 36 0.7 0.18
33 37 0.46 0.15
33 38 0.65 0.24
33 39 0.72 0.14
34 35 0.53 0.06
34 36 0.5 0.21
34 37 0.58 0.19
34 38 0.42 0.2
34 39 0.68 0.22
35 36 0.75 0.15
35 37 0.62 0.16
35 38 0.6 0.26
35 39 0.57 0.17
36 37 0.58 0.06
36 38 0.62 0.26
36 39 0.24 0.09
37 38 0.45 0.2
37 39 0.54 0.03
38 39 0.38 0.17
